74 75 65 66 67 68 69 70 71 72 123 122 121 120 118 103 104 105 106 117 124 125 126 127 128 116 115 114 112 113 131 130 129 132 133 134 135 136 137 138 139 140 141 151 150 149 152 148 147 146 142 143 144 145 158 157 159 156 153 165 154 155 160 161 162 168 163 164 167 166 180 181 179 182 178 177 176 175 171 169 170 172 174 173 108 109 111 110 107 542 541 543 544 547 546 545 548 549 560 561 562 563 564 565 566 567 474 473 472 471 470 496 497 519 518 495 494 520 521 522 523 526 525 524 493 492 491 490 528 529 530 531 489 488 534 535 487 486 485 482 475 476 477 478 479 480 481 483 484 536 537 539 538 540 187 188 186 185 183 184 198 199 200 201 202 204 203 208 207 206 205 197 196 195 194 209 210 211 212 213 214 215 216 217 223 224 222 221 220 218 219 193 192 191 190 189 227 228 229 230 533 532 231 226 225 232 233 234 235 236 237 509 510 511 512 527 513 514 515 516 517 503 502 498 501 500 499 452 453 450 449 448 447 446 442 441 440 439 443 444 445 381 380 379 378 377 376 375 395 396 371 372 370 369 368 365 367 366 342 329 328 327 326 325 324 323 322 373 374 315 314 316 313 312 451 311 310 309 308 307 505 504 506 507 508 302 301 303 304 306 305 318 317 319 320 321 297 298 299 300 241 242 244 243 240 239 238 246 247 245 248 249 250 251 252 254 253 255 256 257 260 261 259 258 262 263 264 265 266 267 271 272 269 268 270 293 294 296 295 291 292 273 274 275 290 289 288 276 277 278 279 282 281 280 287 286 285 284 283 334 335 336 337 338 339 333 332 331 330 340 341 343 344 345 346 364 363 362 347 348 349 350 351 415 416 414 413 417 419 418 410 411 412 356 355 353 352 354 357 358 359 361 360 401 402 403 404 400 399 398 397 394 393 391 392 390 389 388 387 385 408 407 406 405 409 384 383 386 382 425 424 422 420 421 423 426 427 428 429 431 430 432 433 434 435 436 437 438 454 455 456 457 458 459 460 461 462 463 464 465 466 467 469 468 571 570 569 568 20 19 18 17 572 573 0 1 2 3 4 5 6 7 8 9 10 11 16 15 14 13 12 23 22 21 24 25 26 27 28 29 31 30 32 33 34 35 36 37 38 40 41 39 42 43 44 45 556 557 558 559 550 551 101 102 100 99 552 553 554 555 46 47 48 49 54 53 55 56 83 82 57 58 59 81 80 79 78 62 61 60 63 64 76 77 88 89 90 87 86 85 84 51 52 50 91 92 93 94 97 98 96 95 119 73